Route #1: 41 32 37 8 12 31 27
Route #2: 1 9 49 22 24 30 25 46
Route #3: 50 15 23 45 47
Route #4: 18 29 39
Route #5: 13 42 14 28 7 26
Route #6: 35 20 44 21
Route #7: 17 34 38 2 10 16 40 36 5
Route #8: 48 3 19 33 6 11 43 4
Cost 1120.3205594377037